c WARNING: for repeatability, setting FPU to use double precision
d VARIABLES            28412        
d CONSTRAINTS          96576        
c ============================[ Problem Statistics ]=============================
c |                                                                             |
c |  Number of variables:         28412                                         |
c |  Number of clauses:           96576                                         |
c |  Parse time:                   0.02 s                                       |
c |                                                                             |
c ============================[ Search Statistics ]==============================
c | Conflicts |          ORIGINAL         |          LEARNT          | Progress |
c |           |    Vars  Clauses Literals |    Limit  Clauses Lit/Cl |          |
c ===============================================================================
c |       100 |   18230    70158   177105 |    25724      100      6 | 35.837 % |
c |       250 |   18230    70158   177105 |    28297      250      8 | 35.837 % |
c |       475 |   18230    70158   177105 |    31126      475     16 | 35.837 % |
c |       812 |   18230    70158   177105 |    34239      812     26 | 35.837 % |
c |      1318 |   18230    70158   177105 |    37663     1318     46 | 35.837 % |
c |      2077 |   18230    70158   177105 |    41429     2077     67 | 35.837 % |
c ===============================================================================
c restarts              : 15
c conflicts             : 2780           (8081 /sec)
c decisions             : 21436          (0.00 % random) (62310 /sec)
c propagations          : 3387573        (9846995 /sec)
c conflict literals     : 206050         (7.80 % deleted)
d RESTARTS             15
d FAILURES             2780         
d NODES                21436        
d BACKTRACKS           21436        
d PROPAGATIONS         3387573      
d NOGOODSIZE           74.12 
d MEMORY               13.00 
d TIME                 0.344021 

s SATISFIABLE
